36 16
14 141
7 498
8 174
12 736
14 486
10 701
2 395
5 704
2 17
3 452
15 770
2 876
1 623
11 186
11 753
1 601
2 105
14 330
12 874
15 436
12 956
9 143
6 979
10 895
4 469
12 549
1 24
3 548
6 447
2 750
2 191
1 707
1 431
10 391
6 775
15 422
